c nIsolatedPIs 0
c maxPI 32
p cnf 170 415
c gate 33 7 -23 0
7 -33 0
-23 -33 0
-7 23 33 0
c gate 34 -7 23 0
-7 -34 0
23 -34 0
7 -23 34 0
c gate 35 -33 -34 0
-33 -35 0
-34 -35 0
33 34 35 0
c gate 36 -2 18 0
-2 -36 0
18 -36 0
2 -18 36 0
c gate 37 -1 17 0
-1 -37 0
17 -37 0
1 -17 37 0
c gate 38 -36 -37 0
-36 -38 0
-37 -38 0
36 37 38 0
c gate 39 2 -18 0
2 -39 0
-18 -39 0
-2 18 39 0
c gate 40 3 -19 0
3 -40 0
-19 -40 0
-3 19 40 0
c gate 41 -39 -40 0
-39 -41 0
-40 -41 0
39 40 41 0
c gate 42 -38 41 0
-38 -42 0
41 -42 0
38 -41 42 0
c gate 43 -4 20 0
-4 -43 0
20 -43 0
4 -20 43 0
c gate 44 -3 19 0
-3 -44 0
19 -44 0
3 -19 44 0
c gate 45 -43 -44 0
-43 -45 0
-44 -45 0
43 44 45 0
c gate 46 -42 45 0
-42 -46 0
45 -46 0
42 -45 46 0
c gate 47 5 -21 0
5 -47 0
-21 -47 0
-5 21 47 0
c gate 48 4 -20 0
4 -48 0
-20 -48 0
-4 20 48 0
c gate 49 -47 -48 0
-47 -49 0
-48 -49 0
47 48 49 0
c gate 50 -46 49 0
-46 -50 0
49 -50 0
46 -49 50 0
c gate 51 -6 -22 0
-6 -51 0
-22 -51 0
6 22 51 0
c gate 52 6 22 0
6 -52 0
22 -52 0
-6 -22 52 0
c gate 53 -51 -52 0
-51 -53 0
-52 -53 0
51 52 53 0
c gate 54 -5 21 0
-5 -54 0
21 -54 0
5 -21 54 0
c gate 55 -53 -54 0
-53 -55 0
-54 -55 0
53 54 55 0
c gate 56 -50 55 0
-50 -56 0
55 -56 0
50 -55 56 0
c gate 57 35 56 0
35 -57 0
56 -57 0
-35 -56 57 0
c gate 58 11 27 0
11 -58 0
27 -58 0
-11 -27 58 0
c gate 59 -11 -27 0
-11 -59 0
-27 -59 0
11 27 59 0
c gate 60 -58 -59 0
-58 -60 0
-59 -60 0
58 59 60 0
c gate 61 -10 26 0
-10 -61 0
26 -61 0
10 -26 61 0
c gate 62 -9 -25 0
-9 -62 0
-25 -62 0
9 25 62 0
c gate 63 9 25 0
9 -63 0
25 -63 0
-9 -25 63 0
c gate 64 -62 -63 0
-62 -64 0
-63 -64 0
62 63 64 0
c gate 65 6 -22 0
6 -65 0
-22 -65 0
-6 22 65 0
c gate 66 -33 -65 0
-33 -66 0
-65 -66 0
33 65 66 0
c gate 67 -56 66 0
-56 -67 0
66 -67 0
56 -66 67 0
c gate 68 -8 -24 0
-8 -68 0
-24 -68 0
8 24 68 0
c gate 69 8 24 0
8 -69 0
24 -69 0
-8 -24 69 0
c gate 70 -68 -69 0
-68 -70 0
-69 -70 0
68 69 70 0
c gate 71 -34 -70 0
-34 -71 0
-70 -71 0
34 70 71 0
c gate 72 -67 71 0
-67 -72 0
71 -72 0
67 -71 72 0
c gate 73 -64 72 0
-64 -73 0
72 -73 0
64 -72 73 0
c gate 74 10 -26 0
10 -74 0
-26 -74 0
-10 26 74 0
c gate 75 9 -25 0
9 -75 0
-25 -75 0
-9 25 75 0
c gate 76 8 -24 0
8 -76 0
-24 -76 0
-8 24 76 0
c gate 77 -64 76 0
-64 -77 0
76 -77 0
64 -76 77 0
c gate 78 -75 -77 0
-75 -78 0
-77 -78 0
75 77 78 0
c gate 79 -74 78 0
-74 -79 0
78 -79 0
74 -78 79 0
c gate 80 -73 79 0
-73 -80 0
79 -80 0
73 -79 80 0
c gate 81 -61 -80 0
-61 -81 0
-80 -81 0
61 80 81 0
c gate 82 -60 -81 0
-60 -82 0
-81 -82 0
60 81 82 0
c gate 83 12 -28 0
12 -83 0
-28 -83 0
-12 28 83 0
c gate 84 -12 28 0
-12 -84 0
28 -84 0
12 -28 84 0
c gate 85 -83 -84 0
-83 -85 0
-84 -85 0
83 84 85 0
c gate 86 -59 -85 0
-59 -86 0
-85 -86 0
59 85 86 0
c gate 87 10 26 0
10 -87 0
26 -87 0
-10 -26 87 0
c gate 88 -58 -87 0
-58 -88 0
-87 -88 0
58 87 88 0
c gate 89 -7 -23 0
-7 -89 0
-23 -89 0
7 23 89 0
c gate 90 -68 -89 0
-68 -90 0
-89 -90 0
68 89 90 0
c gate 91 -63 -69 0
-63 -91 0
-69 -91 0
63 69 91 0
c gate 92 -90 91 0
-90 -92 0
91 -92 0
90 -91 92 0
c gate 93 -10 -26 0
-10 -93 0
-26 -93 0
10 26 93 0
c gate 94 -62 -93 0
-62 -94 0
-93 -94 0
62 93 94 0
c gate 95 -92 94 0
-92 -95 0
94 -95 0
92 -94 95 0
c gate 96 88 -95 0
88 -96 0
-95 -96 0
-88 95 96 0
c gate 97 86 -96 0
86 -97 0
-96 -97 0
-86 96 97 0
c gate 98 -3 -19 0
-3 -98 0
-19 -98 0
3 19 98 0
c gate 99 2 18 0
2 -99 0
18 -99 0
-2 -18 99 0
c gate 100 -2 -18 0
-2 -100 0
-18 -100 0
2 18 100 0
c gate 101 1 17 0
1 -101 0
17 -101 0
-1 -17 101 0
c gate 102 -100 101 0
-100 -102 0
101 -102 0
100 -101 102 0
c gate 103 -99 -102 0
-99 -103 0
-102 -103 0
99 102 103 0
c gate 104 -98 -103 0
-98 -104 0
-103 -104 0
98 103 104 0
c gate 105 4 20 0
4 -105 0
20 -105 0
-4 -20 105 0
c gate 106 3 19 0
3 -106 0
19 -106 0
-3 -19 106 0
c gate 107 -105 -106 0
-105 -107 0
-106 -107 0
105 106 107 0
c gate 108 -104 107 0
-104 -108 0
107 -108 0
104 -107 108 0
c gate 109 -5 -21 0
-5 -109 0
-21 -109 0
5 21 109 0
c gate 110 -4 -20 0
-4 -110 0
-20 -110 0
4 20 110 0
c gate 111 -109 -110 0
-109 -111 0
-110 -111 0
109 110 111 0
c gate 112 -108 111 0
-108 -112 0
111 -112 0
108 -111 112 0
c gate 113 5 21 0
5 -113 0
21 -113 0
-5 -21 113 0
c gate 114 -52 -113 0
-52 -114 0
-113 -114 0
52 113 114 0
c gate 115 -112 114 0
-112 -115 0
114 -115 0
112 -114 115 0
c gate 116 -51 -115 0
-51 -116 0
-115 -116 0
51 115 116 0
c gate 117 -35 -63 0
-35 -117 0
-63 -117 0
35 63 117 0
c gate 118 70 117 0
70 -118 0
117 -118 0
-70 -117 118 0
c gate 119 -116 118 0
-116 -119 0
118 -119 0
116 -118 119 0
c gate 120 95 -119 0
95 -120 0
-119 -120 0
-95 119 120 0
c gate 121 88 -120 0
88 -121 0
-120 -121 0
-88 120 121 0
c gate 122 86 -121 0
86 -122 0
-121 -122 0
-86 121 122 0
c gate 123 16 -32 0
16 -123 0
-32 -123 0
-16 32 123 0
c gate 124 -16 32 0
-16 -124 0
32 -124 0
16 -32 124 0
c gate 125 -123 -124 0
-123 -125 0
-124 -125 0
123 124 125 0
c gate 126 13 -29 0
13 -126 0
-29 -126 0
-13 29 126 0
c gate 127 -13 29 0
-13 -127 0
29 -127 0
13 -29 127 0
c gate 128 -126 -127 0
-126 -128 0
-127 -128 0
126 127 128 0
c gate 129 -125 -128 0
-125 -129 0
-128 -129 0
125 128 129 0
c gate 130 15 -31 0
15 -130 0
-31 -130 0
-15 31 130 0
c gate 131 -15 31 0
-15 -131 0
31 -131 0
15 -31 131 0
c gate 132 -130 -131 0
-130 -132 0
-131 -132 0
130 131 132 0
c gate 133 14 -30 0
14 -133 0
-30 -133 0
-14 30 133 0
c gate 134 -14 30 0
-14 -134 0
30 -134 0
14 -30 134 0
c gate 135 -133 -134 0
-133 -135 0
-134 -135 0
133 134 135 0
c gate 136 -132 -135 0
-132 -136 0
-135 -136 0
132 135 136 0
c gate 137 129 136 0
129 -137 0
136 -137 0
-129 -136 137 0
c gate 138 122 137 0
122 -138 0
137 -138 0
-122 -137 138 0
c gate 139 97 -138 0
97 -139 0
-138 -139 0
-97 138 139 0
c gate 140 -56 -139 0
-56 -140 0
-139 -140 0
56 139 140 0
c gate 141 57 -70 0
57 -141 0
-70 -141 0
-57 70 141 0
c gate 142 -140 -141 0
-140 -142 0
-141 -142 0
140 141 142 0
c gate 143 -72 -142 0
-72 -143 0
-142 -143 0
72 142 143 0
c gate 144 -87 -93 0
-87 -144 0
-93 -144 0
87 93 144 0
c gate 145 78 144 0
78 -145 0
144 -145 0
-78 -144 145 0
c gate 146 73 -145 0
73 -146 0
-145 -146 0
-73 145 146 0
c gate 147 -143 -146 0
-143 -147 0
-146 -147 0
143 146 147 0
c gate 148 60 78 0
60 -148 0
78 -148 0
-60 -78 148 0
c gate 149 146 148 0
146 -149 0
148 -149 0
-146 -148 149 0
c gate 150 -147 -149 0
-147 -150 0
-149 -150 0
147 149 150 0
c gate 151 -82 -150 0
-82 -151 0
-150 -151 0
82 150 151 0
c gate 152 85 125 0
85 -152 0
125 -152 0
-85 -125 152 0
c gate 153 128 132 0
128 -153 0
132 -153 0
-128 -132 153 0
c gate 154 135 153 0
135 -154 0
153 -154 0
-135 -153 154 0
c gate 155 152 154 0
152 -155 0
154 -155 0
-152 -154 155 0
c gate 156 82 155 0
82 -156 0
155 -156 0
-82 -155 156 0
c gate 157 -151 -156 0
-151 -157 0
-156 -157 0
151 156 157 0
c gate 158 57 -157 0
57 -158 0
-157 -158 0
-57 157 158 0
c gate 159 142 -157 0
142 -159 0
-157 -159 0
-142 157 159 0
c gate 160 35 51 0
35 -160 0
51 -160 0
-35 -51 160 0
c gate 161 -116 -160 0
-116 -161 0
-160 -161 0
116 160 161 0
c gate 162 -157 161 0
-157 -162 0
161 -162 0
157 -161 162 0
c gate 163 -97 162 0
-97 -163 0
162 -163 0
97 -162 163 0
c gate 164 -138 -163 0
-138 -164 0
-163 -164 0
138 163 164 0
c gate 165 -157 -164 0
-157 -165 0
-164 -165 0
157 164 165 0
c gate 166 -142 -158 0
-142 -166 0
-158 -166 0
142 158 166 0
c gate 167 -165 166 0
-165 -167 0
166 -167 0
165 -166 167 0
c gate 168 -159 -167 0
-159 -168 0
-167 -168 0
159 167 168 0
c gate 169 -57 -168 0
-57 -169 0
-168 -169 0
57 168 169 0
c gate 170 -158 -169 0
-158 -170 0
-169 -170 0
158 169 170 0
c PO
170 0
